c A SAT instance generated from a 3-CNF formula that had 16 clauses and 8 variables
p cnf 8 16
-7 -3 2 0
-5 6 -4 0
-7 3 -8 0
7 5 -3 0
-7 -2 4 0
-2 -6 -5 0
1 4 -7 0
-5 1 4 0
2 5 3 0
-8 4 6 0
2 -1 -5 0
2 4 3 0
6 -1 -5 0
-2 1 -8 0
7 -3 -5 0
-2 -5 4 0
